p tw 196 38221 2 
1 3 
1 4 
1 5 
1 6 
1 7 
1 8 
1 9 
1 10 
1 11 
1 12 
1 13 
1 14 
1 15 
1 26 
1 29 
1 34 
1 43 
1 52 
1 57 
1 65 
1 71 
1 78 
1 85 
1 91 
1 99 
1 111 
1 113 
1 117 
1 127 
1 130 
1 141 
1 143 
1 155 
1 156 
1 169 
1 179 
1 183 
1 196 
2 3 
2 4 
2 5 
2 6 
2 7 
2 8 
2 9 
2 10 
2 11 
2 12 
2 13 
2 14 
2 16 
2 23 
2 30 
2 39 
2 44 
2 56 
2 58 
2 60 
2 72 
2 75 
2 86 
2 87 
2 100 
2 108 
2 113 
2 114 
2 128 
2 139 
2 142 
2 147 
2 156 
2 162 
2 170 
2 180 
2 184 
2 188 
3 4 
3 5 
3 6 
3 7 
3 8 
3 9 
3 10 
3 11 
3 12 
3 13 
3 14 
3 17 
3 24 
3 31 
3 36 
3 45 
3 49 
3 58 
3 59 
3 73 
3 74 
3 85 
3 87 
3 101 
3 107 
3 115 
3 124 
3 129 
3 140 
3 143 
3 153 
3 157 
3 159 
3 171 
3 174 
3 185 
3 193 
4 5 
4 6 
4 7 
4 8 
4 9 
4 10 
4 11 
4 12 
4 13 
4 14 
4 17 
4 18 
4 32 
4 40 
4 43 
4 46 
4 60 
4 62 
4 74 
4 83 
4 88 
4 92 
4 102 
4 105 
4 116 
4 122 
4 130 
4 135 
4 144 
4 154 
4 158 
4 165 
4 170 
4 172 
4 186 
4 187 
5 6 
5 7 
5 8 
5 9 
5 10 
5 11 
5 12 
5 13 
5 14 
5 19 
5 22 
5 29 
5 33 
5 47 
5 53 
5 61 
5 68 
5 75 
5 79 
5 89 
5 98 
5 100 
5 103 
5 116 
5 117 
5 131 
5 133 
5 145 
5 146 
5 159 
5 167 
5 173 
5 178 
5 185 
5 187 
6 7 
6 8 
6 9 
6 10 
6 11 
6 12 
6 13 
6 14 
6 19 
6 20 
6 32 
6 34 
6 48 
6 55 
6 62 
6 70 
6 71 
6 76 
6 86 
6 90 
6 104 
6 110 
6 115 
6 118 
6 132 
6 137 
6 146 
6 150 
6 160 
6 163 
6 174 
6 176 
6 188 
6 189 
7 8 
7 9 
7 10 
7 11 
7 12 
7 13 
7 14 
7 21 
7 28 
7 31 
7 35 
7 44 
7 49 
7 57 
7 63 
7 77 
7 82 
7 91 
7 97 
7 104 
7 105 
7 119 
7 123 
7 133 
7 134 
7 147 
7 149 
7 161 
7 164 
7 173 
7 175 
7 186 
7 189 
8 9 
8 10 
8 11 
8 12 
8 13 
8 14 
8 22 
8 27 
8 35 
8 36 
8 45 
8 50 
8 61 
8 64 
8 76 
8 78 
8 92 
8 95 
8 106 
8 112 
8 120 
8 121 
8 127 
8 134 
8 142 
8 148 
8 162 
8 166 
8 172 
8 176 
8 190 
8 192 
9 10 
9 11 
9 12 
9 13 
9 14 
9 23 
9 25 
9 37 
9 38 
9 48 
9 51 
9 65 
9 69 
9 72 
9 79 
9 93 
9 96 
9 102 
9 107 
9 121 
9 126 
9 131 
9 135 
9 148 
9 149 
9 157 
9 163 
9 175 
9 177 
9 183 
9 191 
10 11 
10 12 
10 13 
10 14 
10 16 
10 24 
10 33 
10 38 
10 46 
10 52 
10 59 
10 66 
10 80 
10 84 
10 90 
10 94 
10 99 
10 108 
10 120 
10 122 
10 136 
10 138 
10 150 
10 151 
10 161 
10 164 
10 177 
10 178 
10 192 
10 195 
11 12 
11 13 
11 14 
11 18 
11 25 
11 37 
11 39 
11 50 
11 53 
11 63 
11 67 
11 80 
11 81 
11 89 
11 95 
11 101 
11 109 
11 118 
11 123 
11 128 
11 137 
11 141 
11 151 
11 165 
11 168 
11 179 
11 181 
11 193 
11 194 
12 13 
12 14 
12 20 
12 26 
12 30 
12 40 
12 51 
12 54 
12 67 
12 68 
12 77 
12 82 
12 94 
12 96 
12 103 
12 110 
12 124 
12 125 
12 129 
12 138 
12 144 
12 152 
12 155 
12 166 
12 180 
12 182 
12 190 
12 194 
13 14 
13 15 
13 27 
13 41 
13 42 
13 54 
13 55 
13 66 
13 69 
13 81 
13 83 
13 93 
13 97 
13 106 
13 111 
13 119 
13 125 
13 132 
13 139 
13 145 
13 153 
13 158 
13 167 
13 171 
13 181 
13 184 
13 195 
14 21 
14 28 
14 41 
14 42 
14 47 
14 56 
14 64 
14 70 
14 73 
14 84 
14 88 
14 98 
14 109 
14 112 
14 114 
14 126 
14 136 
14 140 
14 152 
14 154 
14 160 
14 168 
14 169 
14 182 
14 191 
14 196 
15 16 
15 17 
15 18 
15 19 
15 20 
15 21 
15 22 
15 23 
15 24 
15 25 
15 26 
15 27 
15 28 
15 29 
15 42 
15 43 
15 54 
15 57 
15 66 
15 71 
15 81 
15 85 
15 93 
15 99 
15 106 
15 113 
15 119 
15 127 
15 132 
15 141 
15 145 
15 155 
15 158 
15 169 
15 171 
15 183 
15 184 
16 17 
16 18 
16 19 
16 20 
16 21 
16 22 
16 23 
16 24 
16 25 
16 26 
16 27 
16 28 
16 30 
16 33 
16 44 
16 46 
16 58 
16 59 
16 72 
16 84 
16 86 
16 90 
16 99 
16 100 
16 114 
16 120 
16 128 
16 138 
16 142 
16 151 
16 156 
16 161 
16 170 
16 177 
16 184 
16 195 
17 18 
17 19 
17 20 
17 21 
17 22 
17 23 
17 24 
17 25 
17 26 
17 27 
17 28 
17 31 
17 40 
17 43 
17 45 
17 59 
17 62 
17 73 
17 83 
17 87 
17 92 
17 101 
17 105 
17 115 
17 122 
17 129 
17 135 
17 143 
17 154 
17 157 
17 165 
17 170 
17 171 
17 185 
17 187 
18 19 
18 20 
18 21 
18 22 
18 23 
18 24 
18 25 
18 26 
18 27 
18 28 
18 32 
18 37 
18 46 
18 50 
18 60 
18 63 
18 74 
18 80 
18 88 
18 89 
18 101 
18 102 
18 116 
18 118 
18 128 
18 130 
18 141 
18 144 
18 158 
18 168 
18 172 
18 181 
18 186 
18 194 
19 20 
19 21 
19 22 
19 23 
19 24 
19 25 
19 26 
19 27 
19 28 
19 32 
19 33 
19 47 
19 55 
19 61 
19 70 
19 71 
19 75 
19 86 
19 89 
19 103 
19 110 
19 115 
19 117 
19 131 
19 137 
19 145 
19 150 
19 159 
19 163 
19 173 
19 176 
19 187 
19 189 
20 21 
20 22 
20 23 
20 24 
20 25 
20 26 
20 27 
20 28 
20 30 
20 34 
20 48 
20 51 
20 62 
20 67 
20 76 
20 77 
20 90 
20 94 
20 103 
20 104 
20 118 
20 125 
20 129 
20 132 
20 144 
20 146 
20 155 
20 160 
20 174 
20 182 
20 188 
20 190 
21 22 
21 23 
21 24 
21 25 
21 26 
21 27 
21 28 
21 35 
21 41 
21 47 
21 49 
21 63 
21 64 
21 73 
21 77 
21 88 
21 91 
21 105 
21 109 
21 114 
21 119 
21 133 
21 136 
21 147 
21 152 
21 160 
21 161 
21 169 
21 175 
21 189 
21 191 
22 23 
22 24 
22 25 
22 26 
22 27 
22 28 
22 29 
22 36 
22 50 
22 53 
22 64 
22 68 
22 78 
22 79 
22 92 
22 98 
22 100 
22 106 
22 116 
22 120 
22 133 
22 134 
22 146 
22 148 
22 162 
22 167 
22 176 
22 178 
22 185 
22 190 
23 24 
23 25 
23 26 
23 27 
23 28 
23 37 
23 39 
23 51 
23 56 
23 60 
23 65 
23 75 
23 79 
23 87 
23 93 
23 107 
23 108 
23 113 
23 121 
23 135 
23 139 
23 147 
23 149 
23 162 
23 163 
23 177 
23 180 
23 188 
23 191 
24 25 
24 26 
24 27 
24 28 
24 36 
24 38 
24 49 
24 52 
24 58 
24 66 
24 74 
24 80 
24 85 
24 94 
24 107 
24 108 
24 122 
24 124 
24 136 
24 140 
24 150 
24 153 
24 159 
24 164 
24 174 
24 178 
24 192 
24 193 
25 26 
25 27 
25 28 
25 38 
25 39 
25 48 
25 53 
25 67 
25 69 
25 72 
25 81 
25 95 
25 96 
25 102 
25 109 
25 123 
25 126 
25 131 
25 137 
25 148 
25 151 
25 157 
25 165 
25 175 
25 179 
25 183 
25 193 
26 27 
26 28 
26 34 
26 40 
26 52 
26 54 
26 65 
26 68 
26 78 
26 82 
26 91 
26 96 
26 110 
26 111 
26 117 
26 124 
26 130 
26 138 
26 143 
26 152 
26 156 
26 166 
26 179 
26 180 
26 194 
26 196 
27 28 
27 35 
27 41 
27 45 
27 55 
27 61 
27 69 
27 76 
27 83 
27 95 
27 97 
27 111 
27 112 
27 121 
27 125 
27 127 
27 139 
27 142 
27 153 
27 166 
27 167 
27 172 
27 181 
27 192 
27 195 
28 31 
28 42 
28 44 
28 56 
28 57 
28 70 
28 82 
28 84 
28 97 
28 98 
28 104 
28 112 
28 123 
28 126 
28 134 
28 140 
28 149 
28 154 
28 164 
28 168 
28 173 
28 182 
28 186 
28 196 
29 30 
29 31 
29 32 
29 33 
29 34 
29 35 
29 36 
29 37 
29 38 
29 39 
29 40 
29 41 
29 42 
29 43 
29 53 
29 57 
29 68 
29 71 
29 79 
29 85 
29 98 
29 99 
29 100 
29 113 
29 116 
29 127 
29 133 
29 141 
29 146 
29 155 
29 167 
29 169 
29 178 
29 183 
29 185 
30 31 
30 32 
30 33 
30 34 
30 35 
30 36 
30 37 
30 38 
30 39 
30 40 
30 41 
30 42 
30 44 
30 51 
30 58 
30 67 
30 72 
30 77 
30 86 
30 94 
30 100 
30 103 
30 114 
30 125 
30 128 
30 129 
30 142 
30 144 
30 155 
30 156 
30 170 
30 182 
30 184 
30 190 
31 32 
31 33 
31 34 
31 35 
31 36 
31 37 
31 38 
31 39 
31 40 
31 41 
31 42 
31 44 
31 45 
31 57 
31 59 
31 73 
31 82 
31 87 
31 97 
31 101 
31 104 
31 115 
31 123 
31 129 
31 134 
31 143 
31 149 
31 157 
31 164 
31 171 
31 173 
31 185 
31 186 
32 33 
32 34 
32 35 
32 36 
32 37 
32 38 
32 39 
32 40 
32 41 
32 42 
32 46 
32 55 
32 60 
32 70 
32 71 
32 74 
32 86 
32 88 
32 102 
32 110 
32 115 
32 116 
32 130 
32 137 
32 144 
32 150 
32 158 
32 163 
32 172 
32 176 
32 186 
32 189 
33 34 
33 35 
33 36 
33 37 
33 38 
33 39 
33 40 
33 41 
33 42 
33 46 
33 47 
33 59 
33 61 
33 75 
33 84 
33 89 
33 90 
33 99 
33 103 
33 117 
33 120 
33 131 
33 138 
33 145 
33 151 
33 159 
33 161 
33 173 
33 177 
33 187 
33 195 
34 35 
34 36 
34 37 
34 38 
34 39 
34 40 
34 41 
34 42 
34 48 
34 52 
34 62 
34 65 
34 76 
34 78 
34 90 
34 91 
34 104 
34 111 
34 117 
34 118 
34 130 
34 132 
34 143 
34 146 
34 156 
34 160 
34 174 
34 179 
34 188 
34 196 
35 36 
35 37 
35 38 
35 39 
35 40 
35 41 
35 42 
35 45 
35 49 
35 61 
35 63 
35 76 
35 77 
35 91 
35 95 
35 105 
35 112 
35 119 
35 121 
35 127 
35 133 
35 142 
35 147 
35 161 
35 166 
35 172 
35 175 
35 189 
35 192 
36 37 
36 38 
36 39 
36 40 
36 41 
36 42 
36 49 
36 50 
36 58 
36 64 
36 74 
36 78 
36 85 
36 92 
36 106 
36 107 
36 120 
36 124 
36 134 
36 140 
36 148 
36 153 
36 159 
36 162 
36 174 
36 176 
36 190 
36 193 
37 38 
37 39 
37 40 
37 41 
37 42 
37 50 
37 51 
37 63 
37 65 
37 79 
37 80 
37 89 
37 93 
37 101 
37 107 
37 118 
37 121 
37 128 
37 135 
37 141 
37 149 
37 163 
37 168 
37 177 
37 181 
37 191 
37 194 
38 39 
38 40 
38 41 
38 42 
38 48 
38 52 
38 66 
38 69 
38 72 
38 80 
38 94 
38 96 
38 102 
38 108 
38 122 
38 126 
38 131 
38 136 
38 148 
38 150 
38 157 
38 164 
38 175 
38 178 
38 183 
38 192 
39 40 
39 41 
39 42 
39 53 
39 56 
39 60 
39 67 
39 75 
39 81 
39 87 
39 95 
39 108 
39 109 
39 113 
39 123 
39 137 
39 139 
39 147 
39 151 
39 162 
39 165 
39 179 
39 180 
39 188 
39 193 
40 41 
40 42 
40 43 
40 54 
40 62 
40 68 
40 82 
40 83 
40 92 
40 96 
40 105 
40 110 
40 122 
40 124 
40 135 
40 138 
40 152 
40 154 
40 165 
40 166 
40 170 
40 180 
40 187 
40 194 
41 42 
41 47 
41 55 
41 64 
41 69 
41 73 
41 83 
41 88 
41 97 
41 109 
41 111 
41 114 
41 125 
41 136 
41 139 
41 152 
41 153 
41 160 
41 167 
41 169 
41 181 
41 191 
41 195 
42 54 
42 56 
42 66 
42 70 
42 81 
42 84 
42 93 
42 98 
42 106 
42 112 
42 119 
42 126 
42 132 
42 140 
42 145 
42 154 
42 158 
42 168 
42 171 
42 182 
42 184 
42 196 
43 44 
43 45 
43 46 
43 47 
43 48 
43 49 
43 50 
43 51 
43 52 
43 53 
43 54 
43 55 
43 56 
43 57 
43 62 
43 71 
43 83 
43 85 
43 92 
43 99 
43 105 
43 113 
43 122 
43 127 
43 135 
43 141 
43 154 
43 155 
43 165 
43 169 
43 170 
43 183 
43 187 
44 45 
44 46 
44 47 
44 48 
44 49 
44 50 
44 51 
44 52 
44 53 
44 54 
44 55 
44 56 
44 57 
44 58 
44 72 
44 82 
44 86 
44 97 
44 100 
44 104 
44 114 
44 123 
44 128 
44 134 
44 142 
44 149 
44 156 
44 164 
44 170 
44 173 
44 184 
44 186 
45 46 
45 47 
45 48 
45 49 
45 50 
45 51 
45 52 
45 53 
45 54 
45 55 
45 56 
45 59 
45 61 
45 73 
45 76 
45 87 
45 95 
45 101 
45 112 
45 115 
45 121 
45 127 
45 129 
45 142 
45 143 
45 157 
45 166 
45 171 
45 172 
45 185 
45 192 
46 47 
46 48 
46 49 
46 50 
46 51 
46 52 
46 53 
46 54 
46 55 
46 56 
46 59 
46 60 
46 74 
46 84 
46 88 
46 90 
46 99 
46 102 
46 116 
46 120 
46 130 
46 138 
46 144 
46 151 
46 158 
46 161 
46 172 
46 177 
46 186 
46 195 
47 48 
47 49 
47 50 
47 51 
47 52 
47 53 
47 54 
47 55 
47 56 
47 61 
47 64 
47 73 
47 75 
47 88 
47 89 
47 103 
47 109 
47 114 
47 117 
47 131 
47 136 
47 145 
47 152 
47 159 
47 160 
47 169 
47 173 
47 187 
47 191 
48 49 
48 50 
48 51 
48 52 
48 53 
48 54 
48 55 
48 56 
48 62 
48 69 
48 72 
48 76 
48 90 
48 96 
48 102 
48 104 
48 118 
48 126 
48 131 
48 132 
48 146 
48 148 
48 157 
48 160 
48 174 
48 175 
48 183 
48 188 
49 50 
49 51 
49 52 
49 53 
49 54 
49 55 
49 56 
49 58 
49 63 
49 74 
49 77 
49 85 
49 91 
49 105 
49 107 
49 119 
49 124 
49 133 
49 140 
49 147 
49 153 
49 159 
49 161 
49 174 
49 175 
49 189 
49 193 
50 51 
50 52 
50 53 
50 54 
50 55 
50 56 
50 63 
50 64 
50 78 
50 80 
50 89 
50 92 
50 101 
50 106 
50 118 
50 120 
50 128 
50 134 
50 141 
50 148 
50 162 
50 168 
50 176 
50 181 
50 190 
50 194 
51 52 
51 53 
51 54 
51 55 
51 56 
51 65 
51 67 
51 77 
51 79 
51 93 
51 94 
51 103 
51 107 
51 121 
51 125 
51 129 
51 135 
51 144 
51 149 
51 155 
51 163 
51 177 
51 182 
51 190 
51 191 
52 53 
52 54 
52 55 
52 56 
52 65 
52 66 
52 78 
52 80 
52 91 
52 94 
52 108 
52 111 
52 117 
52 122 
52 130 
52 136 
52 143 
52 150 
52 156 
52 164 
52 178 
52 179 
52 192 
52 196 
53 54 
53 55 
53 56 
53 67 
53 68 
53 79 
53 81 
53 95 
53 98 
53 100 
53 109 
53 116 
53 123 
53 133 
53 137 
53 146 
53 151 
53 165 
53 167 
53 178 
53 179 
53 185 
53 193 
54 55 
54 56 
54 66 
54 68 
54 81 
54 82 
54 93 
54 96 
54 106 
54 110 
54 119 
54 124 
54 132 
54 138 
54 145 
54 152 
54 158 
54 166 
54 171 
54 180 
54 184 
54 194 
55 56 
55 69 
55 70 
55 71 
55 83 
55 86 
55 97 
55 110 
55 111 
55 115 
55 125 
55 137 
55 139 
55 150 
55 153 
55 163 
55 167 
55 176 
55 181 
55 189 
55 195 
56 60 
56 70 
56 75 
56 84 
56 87 
56 98 
56 108 
56 112 
56 113 
56 126 
56 139 
56 140 
56 147 
56 154 
56 162 
56 168 
56 180 
56 182 
56 188 
56 196 
57 58 
57 59 
57 60 
57 61 
57 62 
57 63 
57 64 
57 65 
57 66 
57 67 
57 68 
57 69 
57 70 
57 71 
57 82 
57 85 
57 97 
57 99 
57 104 
57 113 
57 123 
57 127 
57 134 
57 141 
57 149 
57 155 
57 164 
57 169 
57 173 
57 183 
57 186 
58 59 
58 60 
58 61 
58 62 
58 63 
58 64 
58 65 
58 66 
58 67 
58 68 
58 69 
58 70 
58 72 
58 74 
58 85 
58 86 
58 100 
58 107 
58 114 
58 124 
58 128 
58 140 
58 142 
58 153 
58 156 
58 159 
58 170 
58 174 
58 184 
58 193 
59 60 
59 61 
59 62 
59 63 
59 64 
59 65 
59 66 
59 67 
59 68 
59 69 
59 70 
59 73 
59 84 
59 87 
59 90 
59 99 
59 101 
59 115 
59 120 
59 129 
59 138 
59 143 
59 151 
59 157 
59 161 
59 171 
59 177 
59 185 
59 195 
60 61 
60 62 
60 63 
60 64 
60 65 
60 66 
60 67 
60 68 
60 69 
60 70 
60 74 
60 75 
60 87 
60 88 
60 102 
60 108 
60 113 
60 116 
60 130 
60 139 
60 144 
60 147 
60 158 
60 162 
60 172 
60 180 
60 186 
60 188 
61 62 
61 63 
61 64 
61 65 
61 66 
61 67 
61 68 
61 69 
61 70 
61 75 
61 76 
61 89 
61 95 
61 103 
61 112 
61 117 
61 121 
61 127 
61 131 
61 142 
61 145 
61 159 
61 166 
61 172 
61 173 
61 187 
61 192 
62 63 
62 64 
62 65 
62 66 
62 67 
62 68 
62 69 
62 70 
62 76 
62 83 
62 90 
62 92 
62 104 
62 105 
62 118 
62 122 
62 132 
62 135 
62 146 
62 154 
62 160 
62 165 
62 170 
62 174 
62 187 
62 188 
63 64 
63 65 
63 66 
63 67 
63 68 
63 69 
63 70 
63 77 
63 80 
63 89 
63 91 
63 101 
63 105 
63 118 
63 119 
63 128 
63 133 
63 141 
63 147 
63 161 
63 168 
63 175 
63 181 
63 189 
63 194 
64 65 
64 66 
64 67 
64 68 
64 69 
64 70 
64 73 
64 78 
64 88 
64 92 
64 106 
64 109 
64 114 
64 120 
64 134 
64 136 
64 148 
64 152 
64 160 
64 162 
64 169 
64 176 
64 190 
64 191 
65 66 
65 67 
65 68 
65 69 
65 70 
65 78 
65 79 
65 91 
65 93 
65 107 
65 111 
65 117 
65 121 
65 130 
65 135 
65 143 
65 149 
65 156 
65 163 
65 177 
65 179 
65 191 
65 196 
66 67 
66 68 
66 69 
66 70 
66 80 
66 81 
66 93 
66 94 
66 106 
66 108 
66 119 
66 122 
66 132 
66 136 
66 145 
66 150 
66 158 
66 164 
66 171 
66 178 
66 184 
66 192 
67 68 
67 69 
67 70 
67 77 
67 81 
67 94 
67 95 
67 103 
67 109 
67 123 
67 125 
67 129 
67 137 
67 144 
67 151 
67 155 
67 165 
67 179 
67 182 
67 190 
67 193 
68 69 
68 70 
68 79 
68 82 
68 96 
68 98 
68 100 
68 110 
68 116 
68 124 
68 133 
68 138 
68 146 
68 152 
68 166 
68 167 
68 178 
68 180 
68 185 
68 194 
69 70 
69 72 
69 83 
69 96 
69 97 
69 102 
69 111 
69 125 
69 126 
69 131 
69 139 
69 148 
69 153 
69 157 
69 167 
69 175 
69 181 
69 183 
69 195 
70 71 
70 84 
70 86 
70 98 
70 110 
70 112 
70 115 
70 126 
70 137 
70 140 
70 150 
70 154 
70 163 
70 168 
70 176 
70 182 
70 189 
70 196 
71 72 
71 73 
71 74 
71 75 
71 76 
71 77 
71 78 
71 79 
71 80 
71 81 
71 82 
71 83 
71 84 
71 85 
71 86 
71 99 
71 110 
71 113 
71 115 
71 127 
71 137 
71 141 
71 150 
71 155 
71 163 
71 169 
71 176 
71 183 
71 189 
72 73 
72 74 
72 75 
72 76 
72 77 
72 78 
72 79 
72 80 
72 81 
72 82 
72 83 
72 84 
72 86 
72 96 
72 100 
72 102 
72 114 
72 126 
72 128 
72 131 
72 142 
72 148 
72 156 
72 157 
72 170 
72 175 
72 183 
72 184 
73 74 
73 75 
73 76 
73 77 
73 78 
73 79 
73 80 
73 81 
73 82 
73 83 
73 84 
73 87 
73 88 
73 101 
73 109 
73 114 
73 115 
73 129 
73 136 
73 143 
73 152 
73 157 
73 160 
73 169 
73 171 
73 185 
73 191 
74 75 
74 76 
74 77 
74 78 
74 79 
74 80 
74 81 
74 82 
74 83 
74 84 
74 85 
74 88 
74 102 
74 107 
74 116 
74 124 
74 130 
74 140 
74 144 
74 153 
74 158 
74 159 
74 172 
74 174 
74 186 
74 193 
75 76 
75 77 
75 78 
75 79 
75 80 
75 81 
75 82 
75 83 
75 84 
75 87 
75 89 
75 103 
75 108 
75 113 
75 117 
75 131 
75 139 
75 145 
75 147 
75 159 
75 162 
75 173 
75 180 
75 187 
75 188 
76 77 
76 78 
76 79 
76 80 
76 81 
76 82 
76 83 
76 84 
76 90 
76 95 
76 104 
76 112 
76 118 
76 121 
76 127 
76 132 
76 142 
76 146 
76 160 
76 166 
76 172 
76 174 
76 188 
76 192 
77 78 
77 79 
77 80 
77 81 
77 82 
77 83 
77 84 
77 91 
77 94 
77 103 
77 105 
77 119 
77 125 
77 129 
77 133 
77 144 
77 147 
77 155 
77 161 
77 175 
77 182 
77 189 
77 190 
78 79 
78 80 
78 81 
78 82 
78 83 
78 84 
78 91 
78 92 
78 106 
78 111 
78 117 
78 120 
78 130 
78 134 
78 143 
78 148 
78 156 
78 162 
78 176 
78 179 
78 190 
78 196 
79 80 
79 81 
79 82 
79 83 
79 84 
79 93 
79 98 
79 100 
79 107 
79 116 
79 121 
79 133 
79 135 
79 146 
79 149 
79 163 
79 167 
79 177 
79 178 
79 185 
79 191 
80 81 
80 82 
80 83 
80 84 
80 89 
80 94 
80 101 
80 108 
80 118 
80 122 
80 128 
80 136 
80 141 
80 150 
80 164 
80 168 
80 178 
80 181 
80 192 
80 194 
81 82 
81 83 
81 84 
81 93 
81 95 
81 106 
81 109 
81 119 
81 123 
81 132 
81 137 
81 145 
81 151 
81 158 
81 165 
81 171 
81 179 
81 184 
81 193 
82 83 
82 84 
82 96 
82 97 
82 104 
82 110 
82 123 
82 124 
82 134 
82 138 
82 149 
82 152 
82 164 
82 166 
82 173 
82 180 
82 186 
82 194 
83 84 
83 92 
83 97 
83 105 
83 111 
83 122 
83 125 
83 135 
83 139 
83 153 
83 154 
83 165 
83 167 
83 170 
83 181 
83 187 
83 195 
84 90 
84 98 
84 99 
84 112 
84 120 
84 126 
84 138 
84 140 
84 151 
84 154 
84 161 
84 168 
84 177 
84 182 
84 195 
84 196 
85 86 
85 87 
85 88 
85 89 
85 90 
85 91 
85 92 
85 93 
85 94 
85 95 
85 96 
85 97 
85 98 
85 99 
85 107 
85 113 
85 124 
85 127 
85 140 
85 141 
85 153 
85 155 
85 159 
85 169 
85 174 
85 183 
85 193 
86 87 
86 88 
86 89 
86 90 
86 91 
86 92 
86 93 
86 94 
86 95 
86 96 
86 97 
86 98 
86 100 
86 110 
86 114 
86 115 
86 128 
86 137 
86 142 
86 150 
86 156 
86 163 
86 170 
86 176 
86 184 
86 189 
87 88 
87 89 
87 90 
87 91 
87 92 
87 93 
87 94 
87 95 
87 96 
87 97 
87 98 
87 101 
87 108 
87 113 
87 115 
87 129 
87 139 
87 143 
87 147 
87 157 
87 162 
87 171 
87 180 
87 185 
87 188 
88 89 
88 90 
88 91 
88 92 
88 93 
88 94 
88 95 
88 96 
88 97 
88 98 
88 102 
88 109 
88 114 
88 116 
88 130 
88 136 
88 144 
88 152 
88 158 
88 160 
88 169 
88 172 
88 186 
88 191 
89 90 
89 91 
89 92 
89 93 
89 94 
89 95 
89 96 
89 97 
89 98 
89 101 
89 103 
89 117 
89 118 
89 128 
89 131 
89 141 
89 145 
89 159 
89 168 
89 173 
89 181 
89 187 
89 194 
90 91 
90 92 
90 93 
90 94 
90 95 
90 96 
90 97 
90 98 
90 99 
90 104 
90 118 
90 120 
90 132 
90 138 
90 146 
90 151 
90 160 
90 161 
90 174 
90 177 
90 188 
90 195 
91 92 
91 93 
91 94 
91 95 
91 96 
91 97 
91 98 
91 105 
91 111 
91 117 
91 119 
91 130 
91 133 
91 143 
91 147 
91 156 
91 161 
91 175 
91 179 
91 189 
91 196 
92 93 
92 94 
92 95 
92 96 
92 97 
92 98 
92 105 
92 106 
92 120 
92 122 
92 134 
92 135 
92 148 
92 154 
92 162 
92 165 
92 170 
92 176 
92 187 
92 190 
93 94 
93 95 
93 96 
93 97 
93 98 
93 106 
93 107 
93 119 
93 121 
93 132 
93 135 
93 145 
93 149 
93 158 
93 163 
93 171 
93 177 
93 184 
93 191 
94 95 
94 96 
94 97 
94 98 
94 103 
94 108 
94 122 
94 125 
94 129 
94 136 
94 144 
94 150 
94 155 
94 164 
94 178 
94 182 
94 190 
94 192 
95 96 
95 97 
95 98 
95 109 
95 112 
95 121 
95 123 
95 127 
95 137 
95 142 
95 151 
95 165 
95 166 
95 172 
95 179 
95 192 
95 193 
96 97 
96 98 
96 102 
96 110 
96 124 
96 126 
96 131 
96 138 
96 148 
96 152 
96 157 
96 166 
96 175 
96 180 
96 183 
96 194 
97 98 
97 104 
97 111 
97 123 
97 125 
97 134 
97 139 
97 149 
97 153 
97 164 
97 167 
97 173 
97 181 
97 186 
97 195 
98 100 
98 112 
98 116 
98 126 
98 133 
98 140 
98 146 
98 154 
98 167 
98 168 
98 178 
98 182 
98 185 
98 196 
99 100 
99 101 
99 102 
99 103 
99 104 
99 105 
99 106 
99 107 
99 108 
99 109 
99 110 
99 111 
99 112 
99 113 
99 120 
99 127 
99 138 
99 141 
99 151 
99 155 
99 161 
99 169 
99 177 
99 183 
99 195 
100 101 
100 102 
100 103 
100 104 
100 105 
100 106 
100 107 
100 108 
100 109 
100 110 
100 111 
100 112 
100 114 
100 116 
100 128 
100 133 
100 142 
100 146 
100 156 
100 167 
100 170 
100 178 
100 184 
100 185 
101 102 
101 103 
101 104 
101 105 
101 106 
101 107 
101 108 
101 109 
101 110 
101 111 
101 112 
101 115 
101 118 
101 128 
101 129 
101 141 
101 143 
101 157 
101 168 
101 171 
101 181 
101 185 
101 194 
102 103 
102 104 
102 105 
102 106 
102 107 
102 108 
102 109 
102 110 
102 111 
102 112 
102 116 
102 126 
102 130 
102 131 
102 144 
102 148 
102 157 
102 158 
102 172 
102 175 
102 183 
102 186 
103 104 
103 105 
103 106 
103 107 
103 108 
103 109 
103 110 
103 111 
103 112 
103 117 
103 125 
103 129 
103 131 
103 144 
103 145 
103 155 
103 159 
103 173 
103 182 
103 187 
103 190 
104 105 
104 106 
104 107 
104 108 
104 109 
104 110 
104 111 
104 112 
104 118 
104 123 
104 132 
104 134 
104 146 
104 149 
104 160 
104 164 
104 173 
104 174 
104 186 
104 188 
105 106 
105 107 
105 108 
105 109 
105 110 
105 111 
105 112 
105 119 
105 122 
105 133 
105 135 
105 147 
105 154 
105 161 
105 165 
105 170 
105 175 
105 187 
105 189 
106 107 
106 108 
106 109 
106 110 
106 111 
106 112 
106 119 
106 120 
106 132 
106 134 
106 145 
106 148 
106 158 
106 162 
106 171 
106 176 
106 184 
106 190 
107 108 
107 109 
107 110 
107 111 
107 112 
107 121 
107 124 
107 135 
107 140 
107 149 
107 153 
107 159 
107 163 
107 174 
107 177 
107 191 
107 193 
108 109 
108 110 
108 111 
108 112 
108 113 
108 122 
108 136 
108 139 
108 147 
108 150 
108 162 
108 164 
108 178 
108 180 
108 188 
108 192 
109 110 
109 111 
109 112 
109 114 
109 123 
109 136 
109 137 
109 151 
109 152 
109 160 
109 165 
109 169 
109 179 
109 191 
109 193 
110 111 
110 112 
110 115 
110 124 
110 137 
110 138 
110 150 
110 152 
110 163 
110 166 
110 176 
110 180 
110 189 
110 194 
111 112 
111 117 
111 125 
111 130 
111 139 
111 143 
111 153 
111 156 
111 167 
111 179 
111 181 
111 195 
111 196 
112 121 
112 126 
112 127 
112 140 
112 142 
112 154 
112 166 
112 168 
112 172 
112 182 
112 192 
112 196 
113 114 
113 115 
113 116 
113 117 
113 118 
113 119 
113 120 
113 121 
113 122 
113 123 
113 124 
113 125 
113 126 
113 127 
113 139 
113 141 
113 147 
113 155 
113 162 
113 169 
113 180 
113 183 
113 188 
114 115 
114 116 
114 117 
114 118 
114 119 
114 120 
114 121 
114 122 
114 123 
114 124 
114 125 
114 126 
114 128 
114 136 
114 142 
114 152 
114 156 
114 160 
114 169 
114 170 
114 184 
114 191 
115 116 
115 117 
115 118 
115 119 
115 120 
115 121 
115 122 
115 123 
115 124 
115 125 
115 126 
115 129 
115 137 
115 143 
115 150 
115 157 
115 163 
115 171 
115 176 
115 185 
115 189 
116 117 
116 118 
116 119 
116 120 
116 121 
116 122 
116 123 
116 124 
116 125 
116 126 
116 130 
116 133 
116 144 
116 146 
116 158 
116 167 
116 172 
116 178 
116 185 
116 186 
117 118 
117 119 
117 120 
117 121 
117 122 
117 123 
117 124 
117 125 
117 126 
117 130 
117 131 
117 143 
117 145 
117 156 
117 159 
117 173 
117 179 
117 187 
117 196 
118 119 
118 120 
118 121 
118 122 
118 123 
118 124 
118 125 
118 126 
118 128 
118 132 
118 141 
118 146 
118 160 
118 168 
118 174 
118 181 
118 188 
118 194 
119 120 
119 121 
119 122 
119 123 
119 124 
119 125 
119 126 
119 132 
119 133 
119 145 
119 147 
119 158 
119 161 
119 171 
119 175 
119 184 
119 189 
120 121 
120 122 
120 123 
120 124 
120 125 
120 126 
120 134 
120 138 
120 148 
120 151 
120 161 
120 162 
120 176 
120 177 
120 190 
120 195 
121 122 
121 123 
121 124 
121 125 
121 126 
121 127 
121 135 
121 142 
121 149 
121 163 
121 166 
121 172 
121 177 
121 191 
121 192 
122 123 
122 124 
122 125 
122 126 
122 135 
122 136 
122 150 
122 154 
122 164 
122 165 
122 170 
122 178 
122 187 
122 192 
123 124 
123 125 
123 126 
123 134 
123 137 
123 149 
123 151 
123 164 
123 165 
123 173 
123 179 
123 186 
123 193 
124 125 
124 126 
124 138 
124 140 
124 152 
124 153 
124 159 
124 166 
124 174 
124 180 
124 193 
124 194 
125 126 
125 129 
125 139 
125 144 
125 153 
125 155 
125 167 
125 181 
125 182 
125 190 
125 195 
126 131 
126 140 
126 148 
126 154 
126 157 
126 168 
126 175 
126 182 
126 183 
126 196 
127 128 
127 129 
127 130 
127 131 
127 132 
127 133 
127 134 
127 135 
127 136 
127 137 
127 138 
127 139 
127 140 
127 141 
127 142 
127 155 
127 166 
127 169 
127 172 
127 183 
127 192 
128 129 
128 130 
128 131 
128 132 
128 133 
128 134 
128 135 
128 136 
128 137 
128 138 
128 139 
128 140 
128 141 
128 142 
128 156 
128 168 
128 170 
128 181 
128 184 
128 194 
129 130 
129 131 
129 132 
129 133 
129 134 
129 135 
129 136 
129 137 
129 138 
129 139 
129 140 
129 143 
129 144 
129 155 
129 157 
129 171 
129 182 
129 185 
129 190 
130 131 
130 132 
130 133 
130 134 
130 135 
130 136 
130 137 
130 138 
130 139 
130 140 
130 143 
130 144 
130 156 
130 158 
130 172 
130 179 
130 186 
130 196 
131 132 
131 133 
131 134 
131 135 
131 136 
131 137 
131 138 
131 139 
131 140 
131 145 
131 148 
131 157 
131 159 
131 173 
131 175 
131 183 
131 187 
132 133 
132 134 
132 135 
132 136 
132 137 
132 138 
132 139 
132 140 
132 145 
132 146 
132 158 
132 160 
132 171 
132 174 
132 184 
132 188 
133 134 
133 135 
133 136 
133 137 
133 138 
133 139 
133 140 
133 146 
133 147 
133 161 
133 167 
133 175 
133 178 
133 185 
133 189 
134 135 
134 136 
134 137 
134 138 
134 139 
134 140 
134 148 
134 149 
134 162 
134 164 
134 173 
134 176 
134 186 
134 190 
135 136 
135 137 
135 138 
135 139 
135 140 
135 149 
135 154 
135 163 
135 165 
135 170 
135 177 
135 187 
135 191 
136 137 
136 138 
136 139 
136 140 
136 150 
136 152 
136 160 
136 164 
136 169 
136 178 
136 191 
136 192 
137 138 
137 139 
137 140 
137 150 
137 151 
137 163 
137 165 
137 176 
137 179 
137 189 
137 193 
138 139 
138 140 
138 151 
138 152 
138 161 
138 166 
138 177 
138 180 
138 194 
138 195 
139 140 
139 147 
139 153 
139 162 
139 167 
139 180 
139 181 
139 188 
139 195 
140 153 
140 154 
140 159 
140 168 
140 174 
140 182 
140 193 
140 196 
141 142 
141 143 
141 144 
141 145 
141 146 
141 147 
141 148 
141 149 
141 150 
141 151 
141 152 
141 153 
141 154 
141 155 
141 168 
141 169 
141 181 
141 183 
141 194 
142 143 
142 144 
142 145 
142 146 
142 147 
142 148 
142 149 
142 150 
142 151 
142 152 
142 153 
142 154 
142 156 
142 166 
142 170 
142 172 
142 184 
142 192 
143 144 
143 145 
143 146 
143 147 
143 148 
143 149 
143 150 
143 151 
143 152 
143 153 
143 154 
143 156 
143 157 
143 171 
143 179 
143 185 
143 196 
144 145 
144 146 
144 147 
144 148 
144 149 
144 150 
144 151 
144 152 
144 153 
144 154 
144 155 
144 158 
144 172 
144 182 
144 186 
144 190 
145 146 
145 147 
145 148 
145 149 
145 150 
145 151 
145 152 
145 153 
145 154 
145 158 
145 159 
145 171 
145 173 
145 184 
145 187 
146 147 
146 148 
146 149 
146 150 
146 151 
146 152 
146 153 
146 154 
146 160 
146 167 
146 174 
146 178 
146 185 
146 188 
147 148 
147 149 
147 150 
147 151 
147 152 
147 153 
147 154 
147 161 
147 162 
147 175 
147 180 
147 188 
147 189 
148 149 
148 150 
148 151 
148 152 
148 153 
148 154 
148 157 
148 162 
148 175 
148 176 
148 183 
148 190 
149 150 
149 151 
149 152 
149 153 
149 154 
149 163 
149 164 
149 173 
149 177 
149 186 
149 191 
150 151 
150 152 
150 153 
150 154 
150 163 
150 164 
150 176 
150 178 
150 189 
150 192 
151 152 
151 153 
151 154 
151 161 
151 165 
151 177 
151 179 
151 193 
151 195 
152 153 
152 154 
152 160 
152 166 
152 169 
152 180 
152 191 
152 194 
153 154 
153 159 
153 167 
153 174 
153 181 
153 193 
153 195 
154 165 
154 168 
154 170 
154 182 
154 187 
154 196 
155 156 
155 157 
155 158 
155 159 
155 160 
155 161 
155 162 
155 163 
155 164 
155 165 
155 166 
155 167 
155 168 
155 169 
155 182 
155 183 
155 190 
156 157 
156 158 
156 159 
156 160 
156 161 
156 162 
156 163 
156 164 
156 165 
156 166 
156 167 
156 168 
156 170 
156 179 
156 184 
156 196 
157 158 
157 159 
157 160 
157 161 
157 162 
157 163 
157 164 
157 165 
157 166 
157 167 
157 168 
157 171 
157 175 
157 183 
157 185 
158 159 
158 160 
158 161 
158 162 
158 163 
158 164 
158 165 
158 166 
158 167 
158 168 
158 171 
158 172 
158 184 
158 186 
159 160 
159 161 
159 162 
159 163 
159 164 
159 165 
159 166 
159 167 
159 168 
159 173 
159 174 
159 187 
159 193 
160 161 
160 162 
160 163 
160 164 
160 165 
160 166 
160 167 
160 168 
160 169 
160 174 
160 188 
160 191 
161 162 
161 163 
161 164 
161 165 
161 166 
161 167 
161 168 
161 175 
161 177 
161 189 
161 195 
162 163 
162 164 
162 165 
162 166 
162 167 
162 168 
162 176 
162 180 
162 188 
162 190 
163 164 
163 165 
163 166 
163 167 
163 168 
163 176 
163 177 
163 189 
163 191 
164 165 
164 166 
164 167 
164 168 
164 173 
164 178 
164 186 
164 192 
165 166 
165 167 
165 168 
165 170 
165 179 
165 187 
165 193 
166 167 
166 168 
166 172 
166 180 
166 192 
166 194 
167 168 
167 178 
167 181 
167 185 
167 195 
168 181 
168 182 
168 194 
168 196 
169 170 
169 171 
169 172 
169 173 
169 174 
169 175 
169 176 
169 177 
169 178 
169 179 
169 180 
169 181 
169 182 
169 183 
169 191 
170 171 
170 172 
170 173 
170 174 
170 175 
170 176 
170 177 
170 178 
170 179 
170 180 
170 181 
170 182 
170 184 
170 187 
171 172 
171 173 
171 174 
171 175 
171 176 
171 177 
171 178 
171 179 
171 180 
171 181 
171 182 
171 184 
171 185 
172 173 
172 174 
172 175 
172 176 
172 177 
172 178 
172 179 
172 180 
172 181 
172 182 
172 186 
172 192 
173 174 
173 175 
173 176 
173 177 
173 178 
173 179 
173 180 
173 181 
173 182 
173 186 
173 187 
174 175 
174 176 
174 177 
174 178 
174 179 
174 180 
174 181 
174 182 
174 188 
174 193 
175 176 
175 177 
175 178 
175 179 
175 180 
175 181 
175 182 
175 183 
175 189 
176 177 
176 178 
176 179 
176 180 
176 181 
176 182 
176 189 
176 190 
177 178 
177 179 
177 180 
177 181 
177 182 
177 191 
177 195 
178 179 
178 180 
178 181 
178 182 
178 185 
178 192 
179 180 
179 181 
179 182 
179 193 
179 196 
180 181 
180 182 
180 188 
180 194 
181 182 
181 194 
181 195 
182 190 
182 196 
183 184 
183 185 
183 186 
183 187 
183 188 
183 189 
183 190 
183 191 
183 192 
183 193 
183 194 
183 195 
183 196 
184 185 
184 186 
184 187 
184 188 
184 189 
184 190 
184 191 
184 192 
184 193 
184 194 
184 195 
184 196 
185 186 
185 187 
185 188 
185 189 
185 190 
185 191 
185 192 
185 193 
185 194 
185 195 
185 196 
186 187 
186 188 
186 189 
186 190 
186 191 
186 192 
186 193 
186 194 
186 195 
186 196 
187 188 
187 189 
187 190 
187 191 
187 192 
187 193 
187 194 
187 195 
187 196 
188 189 
188 190 
188 191 
188 192 
188 193 
188 194 
188 195 
188 196 
189 190 
189 191 
189 192 
189 193 
189 194 
189 195 
189 196 
190 191 
190 192 
190 193 
190 194 
190 195 
190 196 
191 192 
191 193 
191 194 
191 195 
191 196 
192 193 
192 194 
192 195 
192 196 
193 194 
193 195 
193 196 
194 195 
194 196 
195 196 
